W=7;
H=3;

MAX_TIME=17;
MAX_TRACKS=10;
SEMAPHORE_SUPPLY=2;

TARGET=(3,7);

TRAINS=[(3,2,RIGHT),(3,6,LEFT),(2,3,LEFT)];
DECOYS=[];

INIT_POS=[
(1,5,ROCK),
(2,2,STRAIGHT_RL),
(2,3,STRAIGHT_RL),
(2,5,ROCK),
(3,2,STRAIGHT_RL),
(3,6,STRAIGHT_RL),
(3,7,STRAIGHT_RL),
];
TUNNEL_PAIRS=[];

GATES=[];
ACTIVATIONS=[];

DSWITCHES=[];
STATIONS=[];
